p cnf 12 36
-1 8 0
-1 9 0
-8 -9 1 0
-2 1 0
-2 12 0
-1 -12 2 0
-3 2 0
-3 7 0
-2 -7 3 0
-4 5 0
-4 12 0
-5 -12 4 0
-5 3 0
-5 8 0
-3 -8 5 0
-6 4 0
-6 9 0
-4 -9 6 0
-7 -5 0
-7 -10 0
7 5 10 0
-8 -6 0
-8 -11 0
8 6 11 0
-9 -7 0
-9 -11 0
9 7 11 0
-10 -1 0
-10 -3 0
10 1 3 0
-11 -4 0
-11 -6 0
11 4 6 0
-12 -2 0
-12 -10 0
12 2 10 0
